NAME: tsp_fun
COMMENT: TSP art (Dario)
TYPE: TSP
DIMENSION: 10
EDGE_WEIGHT_TYPE: EUC_2D
NODE_COORD_SECTION
1 1540.4926 252.69943
2 1536.2219 248.21204
3 1536.3431 242.00021
4 1542.2952 246.91064
5 1548.3457 242.30756
6 1543.293 240.836
7 1539.6625 236.9868
8 1545.9697 234.51933
9 1552.4254 231.26744
10 1557.2698 235.6044
